(set-logic QF_S)
(declare-fun var0 () String)
(assert (RegexIn var0 (RegexConcat (RegexStar (RegexStar (Str2Reg "000"))) (RegexConcat (RegexStar (RegexPlus (Str2Reg "11"))) (RegexConcat (RegexPlus (RegexPlus (Str2Reg "222"))) (RegexConcat (RegexPlus (RegexPlus (Str2Reg "333"))) (RegexConcat (RegexPlus (RegexPlus (Str2Reg "444"))) (RegexConcat (RegexStar (RegexPlus (Str2Reg "55"))) (RegexConcat (RegexStar (RegexStar (Str2Reg "6"))) (RegexConcat (RegexPlus (RegexStar (Str2Reg "77"))) (RegexConcat (RegexStar (RegexUnion (Str2Reg "88") (Str2Reg "99"))) (RegexConcat (RegexPlus (RegexStar (Str2Reg "aaa"))) (RegexConcat (RegexPlus (RegexUnion (Str2Reg "b") (Str2Reg "cc"))) (RegexConcat (RegexStar (RegexUnion (Str2Reg "d") (Str2Reg "eee"))) (RegexConcat (RegexPlus (RegexPlus (Str2Reg "f"))) (RegexConcat (RegexPlus (RegexPlus (Str2Reg "gg"))) (RegexConcat (RegexPlus (RegexUnion (Str2Reg "h") (Str2Reg "iii"))) (RegexConcat (RegexStar (RegexPlus (Str2Reg "j"))) (RegexConcat (RegexPlus (RegexUnion (Str2Reg "kk") (Str2Reg "ll"))) (RegexConcat (RegexStar (RegexStar (Str2Reg "mm"))) (RegexConcat (RegexUnion (RegexUnion (Str2Reg "nnn") (Str2Reg "ooo")) (RegexUnion (Str2Reg "ppp") (Str2Reg "qqq"))) (RegexConcat (RegexUnion (RegexStar (Str2Reg "rrr")) (RegexStar (Str2Reg "sss"))) (RegexConcat (RegexPlus (RegexPlus (Str2Reg "t"))) (RegexConcat (RegexUnion (RegexUnion (Str2Reg "uuu") (Str2Reg "vvv")) (RegexUnion (Str2Reg "ww") (Str2Reg "xx"))) (RegexConcat (RegexStar (RegexStar (Str2Reg "yy"))) (RegexConcat (RegexUnion (RegexUnion (Str2Reg "zz") (Str2Reg "AA")) (RegexUnion (Str2Reg "BB") (Str2Reg "CC"))) (RegexConcat (RegexUnion (RegexUnion (Str2Reg "D") (Str2Reg "E")) (RegexUnion (Str2Reg "FFF") (Str2Reg "G"))) (RegexConcat (RegexPlus (RegexStar (Str2Reg "HH"))) (RegexConcat (RegexStar (RegexUnion (Str2Reg "I") (Str2Reg "J"))) (RegexConcat (RegexPlus (RegexStar (Str2Reg "KK"))) (RegexConcat (RegexStar (RegexPlus (Str2Reg "LLL"))) (RegexConcat (RegexPlus (RegexPlus (Str2Reg "M"))) (RegexConcat (RegexStar (RegexUnion (Str2Reg "NN") (Str2Reg "OO"))) (RegexConcat (RegexStar (RegexStar (Str2Reg "P"))) (RegexConcat (RegexStar (RegexStar (Str2Reg "QQ"))) (RegexConcat (RegexUnion (RegexUnion (Str2Reg "RR") (Str2Reg "SS")) (RegexUnion (Str2Reg "T") (Str2Reg "U"))) (RegexConcat (RegexPlus (RegexPlus (Str2Reg "VVV"))) (RegexConcat (RegexStar (RegexStar (Str2Reg "WW"))) (RegexConcat (RegexPlus (RegexUnion (Str2Reg "X") (Str2Reg "Y"))) (RegexConcat (RegexPlus (RegexUnion (Str2Reg "ZZZ") (Str2Reg "!!!"))) (RegexConcat (RegexPlus (RegexStar (Str2Reg "\"\"\""))) (RegexConcat (RegexUnion (RegexUnion (Str2Reg "#") (Str2Reg "$")) (RegexUnion (Str2Reg "%%") (Str2Reg "&&"))) (RegexConcat (RegexPlus (RegexStar (Str2Reg "''"))) (RegexConcat (RegexUnion (RegexPlus (Str2Reg "(")) (RegexPlus (Str2Reg ")))"))) (RegexConcat (RegexUnion (RegexStar (Str2Reg "***")) (RegexStar (Str2Reg "++"))) (RegexConcat (RegexPlus (RegexUnion (Str2Reg ",,,") (Str2Reg "--"))) (RegexConcat (RegexPlus (RegexStar (Str2Reg ".."))) (RegexConcat (RegexPlus (RegexStar (Str2Reg "/"))) (RegexConcat (RegexStar (RegexUnion (Str2Reg ":") (Str2Reg ";;;"))) (RegexConcat (RegexStar (RegexStar (Str2Reg "<<"))) (RegexConcat (RegexPlus (RegexStar (Str2Reg "="))) (RegexConcat (RegexUnion (RegexPlus (Str2Reg ">>")) (RegexPlus (Str2Reg "?"))) (RegexConcat (RegexStar (RegexStar (Str2Reg "@@"))) (RegexConcat (RegexPlus (RegexUnion (Str2Reg "[") (Str2Reg "\\"))) (RegexConcat (RegexPlus (RegexStar (Str2Reg "]]]"))) (RegexConcat (RegexPlus (RegexStar (Str2Reg "^^"))) (RegexStar (RegexStar (Str2Reg "_")))))))))))))))))))))))))))))))))))))))))))))))))))))))))))
(check-sat)